50, 619
39, 17
38, 23
39, 17
22, 7
21, 10
13, 29
12, 22
37, 22
11, 1
43, 47
8, 9
12, 31
20, 14
10, 28
47, 13
47, 5
14, 40
22, 25
16, 21
31, 42
3, 47
46, 28
27, 34
11, 22
2, 48
33, 17
36, 34
28, 3
24, 33
28, 48
49, 5
19, 48
20, 28
20, 45
10, 20
1, 50
39, 28
10, 20
30, 28
33, 19
24, 12
28, 47
45, 18
23, 15
33, 44
18, 4
43, 22
2, 6
24, 47
28, 25
